n_res = 4;
rcap = [11, 11, 58, 54];
rtype = [1, 1, 2, 2];
n_tasks = 16;
modes = [ {1, 2}, {3, 4}, {5, 6}, {7, 8}, {9, 10}, {11, 12}, {13, 14}, {15, 16}, {17, 18}, {19, 20}, {21, 22}, {23, 24}, {25, 26}, {27, 28}, {29, 30}, {31, 32} ];
succ = [ {5, 10, 11}, {4, 5, 7}, {4, 6, 16}, {11}, {6}, {12, 13}, {8, 10, 12}, {9, 14}, {13, 16}, {14, 15, 16}, {12, 13}, {14}, {15}, {}, {}, {} ];
n_opt = 32;
dur = [8, 9, 1, 8, 9, 9, 7, 8, 5, 6, 7, 7, 4, 5, 8, 10, 4, 7, 2, 2, 2, 8, 4, 10, 2, 9, 9, 9, 4, 4, 1, 8];
rreq = [|  0,  0, 10,  0,  0,  4,  7,  6,  0,  3,  7,  0,  0,  0,  0,  5, 10,  6,  7,  0,  7,  4,  0,  0,  3,  2,  0,  0,  0,  5,  9,  0
        |  8,  7,  0,  8,  8,  0,  0,  0,  3,  0,  0,  3,  5,  3,  5,  0,  0,  0,  0,  9,  0,  0, 10,  7,  0,  0,  6,  6,  7,  0,  0,  9
        |  8,  0,  6,  5,  5,  0,  0,  0,  0,  6,  0,  0,  0,  6,  0,  0,  5,  0,  7,  0,  3,  0,  2,  0,  8,  6,  0,  4,  3,  4,  7,  6
        |  0,  8,  0,  0,  0,  5,  8,  3,  1,  0,  7, 10,  1,  0,  7,  6,  0,  5,  0, 10,  0,  4,  0,  3,  0,  0,  5,  0,  0,  0,  0,  0 |];
